(set-logic QF_FP)
(set-option :produce-models true)
(set-info :source |Random FP created by PyMPF|)
(set-info :category random)
(set-info :status sat)
(declare-const x Float32)
(assert (= x ((_ to_fp 8 24) #x007FFFFF)))
(declare-const y Float32)
(assert (= y (fp #b1 #b00000001 #b00000000000000000000000)))
(declare-const z Float32)
(assert (= z (fp #b1 #b11111111 #b01111101111011101001101)))
(declare-const result Float32)
(assert (= result (fp.fma RTZ x y z)))
(assert (= result ((_ to_fp 8 24) #xFFFFFFFF)))
(check-sat)
(exit)
